NAME : kroD100-R-3-0-a.38110.tour
COMMENT : Length = 38110
COMMENT : Found by LKH-3 [Keld Helsgaun] Tue Jul 30 13:14:56 2024
TYPE : TOUR
DIMENSION : 100
TOUR_SECTION
1
13
79
27
41
73
15
63
54
71
60
53
37
30
100
26
95
12
20
82
86
65
78
69
46
52
34
11
89
22
42
74
61
75
36
67
7
45
59
6
25
47
28
56
21
10
87
55
5
62
2
35
93
4
43
39
88
24
66
8
23
70
90
17
94
32
97
98
49
58
29
76
80
72
57
31
99
33
68
14
96
16
64
85
18
40
83
3
9
92
48
19
51
44
77
91
84
81
38
50
-1
EOF
